* #variable= 200 #constraint= 1
min: -188 x1 -706 x2 -632 x3 -300 x4 -870 x5 -956 x6 -488 x7 -488 x8 -728 x9 -414 x10 -526 x11 -526 x12 -874 x13 -670 x14 -680 x15 -504 x16 -906 x17 -396 x18 -198 x19 -344 x20 -624 x21 -476 x22 -624 x23 -416 x24 -456 x25 -368 x26 -832 x27 -822 x28 -882 x29 -396 x30 -634 x31 -424 x32 -490 x33 -594 x34 -380 x35 -990 x36 -478 x37 -336 x38 -794 x39 -566 x40 -226 x41 -470 x42 -28 x43 -380 x44 -720 x45 -864 x46 -716 x47 -572 x48 -362 x49 -654 x50 -156 x51 -404 x52 -230 x53 -684 x54 -812 x55 -604 x56 -746 x57 -878 x58 -492 x59 -422 x60 -494 x61 -754 x62 -696 x63 -972 x64 -496 x65 -176 x66 -186 x67 -748 x68 -720 x69 -544 x70 -30 x71 -874 x72 -816 x73 -358 x74 -554 x75 -468 x76 -904 x77 -212 x78 -540 x79 -360 x80 -396 x81 -152 x82 -670 x83 -282 x84 -482 x85 -78 x86 -778 x87 -144 x88 -644 x89 -760 x90 -272 x91 -88 x92 -886 x93 -986 x94 -142 x95 -858 x96 -132 x97 -402 x98 -36 x99 -182 x100 -76 x101 -868 x102 -620 x103 -712 x104 -66 x105 -744 x106 -592 x107 -66 x108 -702 x109 -776 x110 -980 x111 -518 x112 -358 x113 -8 x114 -16 x115 -600 x116 -296 x117 -788 x118 -998 x119 -856 x120 -986 x121 -180 x122 -608 x123 -922 x124 -28 x125 -678 x126 -8 x127 -202 x128 -72 x129 -456 x130 -632 x131 -770 x132 -330 x133 -486 x134 -204 x135 -746 x136 -824 x137 -146 x138 -486 x139 -170 x140 -282 x141 -702 x142 -162 x143 -364 x144 -234 x145 -518 x146 -196 x147 -106 x148 -188 x149 -548 x150 -862 x151 -974 x152 -544 x153 -10 x154 -248 x155 -778 x156 -182 x157 -356 x158 -840 x159 -852 x160 -714 x161 -136 x162 -426 x163 -306 x164 -168 x165 -354 x166 -198 x167 -814 x168 -50 x169 -582 x170 -982 x171 -106 x172 -52 x173 -534 x174 -240 x175 -284 x176 -638 x177 -312 x178 -888 x179 -172 x180 -690 x181 -894 x182 -594 x183 -522 x184 -26 x185 -614 x186 -676 x187 -202 x188 -676 x189 -912 x190 -34 x191 -628 x192 -502 x193 -598 x194 -406 x195 -396 x196 -48 x197 -974 x198 -488 x199 -162 x200 ;
-188 x1 -706 x2 -632 x3 -300 x4 -870 x5 -956 x6 -488 x7 -488 x8 -728 x9 -414 x10 -526 x11 -526 x12 -874 x13 -670 x14 -680 x15 -504 x16 -906 x17 -396 x18 -198 x19 -344 x20 -624 x21 -476 x22 -624 x23 -416 x24 -456 x25 -368 x26 -832 x27 -822 x28 -882 x29 -396 x30 -634 x31 -424 x32 -490 x33 -594 x34 -380 x35 -990 x36 -478 x37 -336 x38 -794 x39 -566 x40 -226 x41 -470 x42 -28 x43 -380 x44 -720 x45 -864 x46 -716 x47 -572 x48 -362 x49 -654 x50 -156 x51 -404 x52 -230 x53 -684 x54 -812 x55 -604 x56 -746 x57 -878 x58 -492 x59 -422 x60 -494 x61 -754 x62 -696 x63 -972 x64 -496 x65 -176 x66 -186 x67 -748 x68 -720 x69 -544 x70 -30 x71 -874 x72 -816 x73 -358 x74 -554 x75 -468 x76 -904 x77 -212 x78 -540 x79 -360 x80 -396 x81 -152 x82 -670 x83 -282 x84 -482 x85 -78 x86 -778 x87 -144 x88 -644 x89 -760 x90 -272 x91 -88 x92 -886 x93 -986 x94 -142 x95 -858 x96 -132 x97 -402 x98 -36 x99 -182 x100 -76 x101 -868 x102 -620 x103 -712 x104 -66 x105 -744 x106 -592 x107 -66 x108 -702 x109 -776 x110 -980 x111 -518 x112 -358 x113 -8 x114 -16 x115 -600 x116 -296 x117 -788 x118 -998 x119 -856 x120 -986 x121 -180 x122 -608 x123 -922 x124 -28 x125 -678 x126 -8 x127 -202 x128 -72 x129 -456 x130 -632 x131 -770 x132 -330 x133 -486 x134 -204 x135 -746 x136 -824 x137 -146 x138 -486 x139 -170 x140 -282 x141 -702 x142 -162 x143 -364 x144 -234 x145 -518 x146 -196 x147 -106 x148 -188 x149 -548 x150 -862 x151 -974 x152 -544 x153 -10 x154 -248 x155 -778 x156 -182 x157 -356 x158 -840 x159 -852 x160 -714 x161 -136 x162 -426 x163 -306 x164 -168 x165 -354 x166 -198 x167 -814 x168 -50 x169 -582 x170 -982 x171 -106 x172 -52 x173 -534 x174 -240 x175 -284 x176 -638 x177 -312 x178 -888 x179 -172 x180 -690 x181 -894 x182 -594 x183 -522 x184 -26 x185 -614 x186 -676 x187 -202 x188 -676 x189 -912 x190 -34 x191 -628 x192 -502 x193 -598 x194 -406 x195 -396 x196 -48 x197 -974 x198 -488 x199 -162 x200 >= -24771 ;